(set-info :smt-lib-version 2.6)
(set-logic UF)
(set-info :source |Benchmarks from the paper: "Extending Sledgehammer with SMT Solvers" by Jasmin Blanchette, Sascha Bohme, and Lawrence C. Paulson, CADE 2011.  Translated to SMT2 by Andrew Reynolds and Morgan Deters.|)
(set-info :category "industrial")
(set-info :status unsat)
(declare-sort S1 0)
(declare-sort S2 0)
(declare-sort S3 0)
(declare-sort S4 0)
(declare-sort S5 0)
(declare-sort S6 0)
(declare-sort S7 0)
(declare-sort S8 0)
(declare-sort S9 0)
(declare-sort S10 0)
(declare-sort S11 0)
(declare-sort S12 0)
(declare-sort S13 0)
(declare-sort S14 0)
(declare-sort S15 0)
(declare-sort S16 0)
(declare-sort S17 0)
(declare-sort S18 0)
(declare-sort S19 0)
(declare-sort S20 0)
(declare-fun f1 () S1)
(declare-fun f2 () S1)
(declare-fun f3 (S3 S2) S1)
(declare-fun f4 () S3)
(declare-fun f5 (S5 S2) S2)
(declare-fun f6 (S6 S2) S5)
(declare-fun f7 () S6)
(declare-fun f8 (S7 S4) S2)
(declare-fun f9 (S8 S4) S7)
(declare-fun f10 () S8)
(declare-fun f11 () S4)
(declare-fun f12 (S9 S10) S1)
(declare-fun f13 (S2 S4) S9)
(declare-fun f14 (S11) S10)
(declare-fun f15 (S12) S11)
(declare-fun f16 () S12)
(declare-fun f17 (S13 S4) S1)
(declare-fun f18 (S14 S2) S13)
(declare-fun f19 (S15 S2) S14)
(declare-fun f20 () S15)
(declare-fun f21 () S14)
(declare-fun f22 () S6)
(declare-fun f23 () S6)
(declare-fun f24 () S2)
(declare-fun f25 (S16 S3) S2)
(declare-fun f26 () S16)
(declare-fun f27 (S3) S3)
(declare-fun f28 () S2)
(declare-fun f29 () S4)
(declare-fun f30 () S2)
(declare-fun f31 () S7)
(declare-fun f32 (S17 S12) S4)
(declare-fun f33 (S18 S19) S17)
(declare-fun f34 () S18)
(declare-fun f35 () S19)
(declare-fun f36 (S20 S12) S12)
(declare-fun f37 (S14 S15 S15) S20)
(assert (not (= f1 f2)))
(assert (forall ((?v0 S2)) (= (= (f3 f4 ?v0) f1) (exists ((?v1 S4) (?v2 S2)) (and (= ?v0 (f5 (f6 f7 ?v2) (f8 (f9 f10 ?v1) f11))) (= (f12 (f13 ?v2 ?v1) (f14 (f15 f16))) f1))))))
(assert (forall ((?v0 S2) (?v1 S2) (?v2 S4)) (= (= (f17 (f18 (f19 f20 ?v0) ?v1) ?v2) f1) true)))
(assert (forall ((?v0 S2) (?v1 S4)) (= (= (f17 (f18 f21 ?v0) ?v1) f1) false)))
(assert (forall ((?v0 S2) (?v1 S2) (?v2 S2)) (let ((?v_0 (f6 f22 ?v0))) (= (f5 (f6 f22 (f5 ?v_0 ?v1)) ?v2) (f5 (f6 f22 (f5 ?v_0 ?v2)) ?v1)))))
(assert (forall ((?v0 S2) (?v1 S2)) (= (f5 (f6 f22 (f5 (f6 f7 ?v0) ?v1)) ?v1) ?v0)))
(assert (forall ((?v0 S2) (?v1 S2)) (let ((?v_0 (f5 (f6 f23 ?v0) ?v1))) (= (f5 (f6 f23 ?v_0) ?v1) ?v_0))))
(assert (forall ((?v0 S2)) (= (f5 (f6 f23 ?v0) f24) ?v0)))
(assert (forall ((?v0 S2) (?v1 S2)) (= (f5 (f6 f7 (f5 (f6 f22 ?v0) ?v1)) ?v1) ?v0)))
(assert (let ((?v_0 (f25 f26 (f27 f4))) (?v_1 (f8 (f9 f10 f29) f11))) (let ((?v_2 (f5 (f6 f23 (f5 (f6 f7 f30) ?v_0)) (f8 f31 (f32 (f33 f34 f35) (f36 (f37 f21 f20 f20) f16)))))) (not (=> (= ?v_0 (f5 (f6 f7 f28) ?v_1)) (= (f5 (f6 f7 (f5 (f6 f22 f28) ?v_2)) ?v_1) (f5 (f6 f22 ?v_0) ?v_2)))))))
(check-sat)
(exit)
